data;
set K:= K1 K2 K3 K4 K5 K6 K7 K8 K9 K10 K11 K12 K13 K14 K15 ;

set F:= F1 F2 F3 ;

set Q:= Q1 Q2 ;

param T:= 45;
param V: 
	K1  K2  K3  K4  K5  K6  K7  K8  K9  K10 K11 K12 K13 K14 K15 :=
Q1	1   1   1   1   1   1   1   1   1   0   0   0   0   0   0   
Q2	0   0   0   0   0   0   0   0   0   1   1   1   1   1   1   
; # if resorce k is of type q

param TF:= 
K1 6
K2 6
K3 6
K4 6
K5 6
K6 6
K7 6
K8 6
K9 6
K10 12
K11 12
K12 12
K13 12
K14 12
K15 12
; # number of continuous time slots resource can fly

param TR:= 
K1 2
K2 2
K3 2
K4 2
K5 2
K6 2
K7 2
K8 2
K9 2
K10 4
K11 4
K12 4
K13 4
K14 4
K15 4
; #  number of continuous time slots resource k needs to rest between flights

param P:= 
K1 36
K2 36
K3 36
K4 36
K5 36
K6 36
K7 36
K8 36
K9 36
K10 36
K11 36
K12 36
K13 36
K14 36
K15 36
; #  number of continuous time slots a pilot can be present including rest times for resource k 

param N:= 
K1 4
K2 4
K3 4
K4 4
K5 4
K6 4
K7 4
K8 4
K9 4
K10 2
K11 1
K12 1
K13 2
K14 1
K15 2
; # max number of flights resource k can fly in the total time period

param A: 
	K1  K2  K3  K4  K5  K6  K7  K8  K9  K10 K11 K12 K13 K14 K15 :=
1	1   1   1   1   1   1   1   1   1   1   0   1   1   0   1   
2	1   1   1   1   1   1   1   1   1   1   0   1   1   0   1   
3	1   1   1   1   1   1   1   1   1   1   0   1   1   0   1   
4	1   1   1   1   1   1   1   1   1   1   0   1   1   0   1   
5	1   1   1   1   1   1   1   1   1   1   0   1   1   0   1   
6	1   1   1   1   1   1   1   1   1   1   0   1   1   0   1   
7	1   1   1   1   1   1   1   1   1   1   0   1   1   0   1   
8	1   1   1   1   1   1   1   1   1   1   0   1   1   0   1   
9	1   1   1   1   1   1   1   1   1   1   0   1   1   0   1   
10	1   1   1   1   1   1   1   1   1   1   0   1   1   0   1   
11	1   1   1   1   1   1   1   1   1   1   1   1   1   0   1   
12	1   1   1   1   1   1   1   1   1   1   1   1   1   0   1   
13	1   1   1   1   1   1   1   1   1   1   1   1   1   0   1   
14	1   1   1   1   1   1   1   1   1   1   1   1   1   0   1   
15	1   1   1   1   1   1   1   1   1   1   1   1   1   1   1   
16	1   1   1   1   1   1   1   1   1   1   1   1   1   1   1   
17	1   1   1   1   1   1   1   1   1   1   1   1   1   1   1   
18	1   1   1   1   1   1   1   1   1   1   1   1   1   1   1   
19	1   1   1   1   1   1   1   1   1   1   1   1   1   1   1   
20	1   1   1   1   1   1   1   1   1   1   1   1   1   1   1   
21	1   1   1   1   1   1   1   1   1   1   1   1   1   1   1   
22	1   1   1   1   1   1   1   1   1   1   1   1   1   1   1   
23	1   1   1   1   1   1   1   1   1   1   1   1   1   1   1   
24	1   1   1   1   1   1   1   1   1   1   1   1   1   1   1   
25	1   1   1   1   1   1   1   1   1   1   1   1   1   1   1   
26	1   1   1   1   1   1   1   1   1   1   1   1   1   1   1   
27	1   1   1   1   1   1   1   1   1   1   1   1   1   1   1   
28	1   1   1   1   1   1   1   1   1   1   1   1   1   1   1   
29	1   1   1   1   1   1   1   1   1   1   1   1   1   1   1   
30	1   1   1   1   1   1   1   1   1   1   1   1   1   1   1   
31	1   1   1   1   1   1   1   1   1   1   1   1   1   1   1   
32	1   1   1   1   1   1   1   1   1   1   1   1   1   1   1   
33	1   1   1   1   1   1   1   1   1   1   1   1   1   1   1   
34	1   1   1   1   1   1   1   1   1   1   1   1   1   1   1   
35	1   1   1   1   1   1   1   1   1   1   1   1   1   1   1   
36	1   1   1   1   1   1   1   1   1   1   1   0   1   1   1   
37	1   1   1   1   1   1   1   1   1   1   1   0   1   1   1   
38	1   1   1   1   1   1   1   1   1   1   1   0   1   1   1   
39	1   1   1   1   1   1   1   1   1   1   1   0   1   1   1   
40	1   1   1   1   1   1   1   1   1   1   1   0   1   1   1   
41	1   1   1   1   1   1   1   1   1   1   1   0   1   1   1   
42	1   1   1   1   1   1   1   1   1   1   1   0   1   1   1   
43	1   1   1   1   1   1   1   1   1   1   1   0   1   1   1   
44	1   1   1   1   1   1   1   1   1   1   1   0   1   1   1   
45	1   1   1   1   1   1   1   1   1   1   1   0   1   1   1   
; # availability of resorce k in time slot t

param B: 
	F1  F2  F3  :=
Q1	0   0   0   
Q2	0   0   0   
; # if front f requires resources of type q

param U: 
	F1  F2  F3  :=
K1	0   0   0   
K2	0   0   0   
K3	0   0   0   
K4	0   0   0   
K5	0   0   0   
K6	0   0   0   
K7	0   0   0   
K8	0   0   0   
K9	0   0   0   
K10	1   1   1   
K11	0   0   0   
K12	1   1   1   
K13	0   0   0   
K14	2   2   2   
K15	2   2   2   
; # transit time of resource

param C:= 
K1 900
K2 900
K3 900
K4 900
K5 900
K6 1500
K7 1500
K8 4500
K9 4500
K10 5500
K11 5500
K12 5500
K13 5500
K14 5500
K15 5500
; #  water capacity of resource k

param S:= 
F1 7
F2 7
F3 7
; # max number of resources that can fly at front f in the same time slot

param D:= 

[*,*,F1 ]:  K1    K2    K3    K4    K5    K6    K7    K8    K9    K10   K11   K12   K13   K14   K15   :=
1           1.54  1.54  1.54  1.54  1.54  1.54  1.54  1.22  1.22  0.92  0.92  0.92  0.92  0.92  0.92  
2           1.54  1.54  1.54  1.54  1.54  1.54  1.54  1.22  1.22  0.92  0.92  0.92  0.92  0.92  0.92  
3           1.54  1.54  1.54  1.54  1.54  1.54  1.54  1.22  1.22  0.92  0.92  0.92  0.92  0.92  0.92  
4           1.54  1.54  1.54  1.54  1.54  1.54  1.54  1.22  1.22  0.92  0.92  0.92  0.92  0.92  0.92  
5           1.54  1.54  1.54  1.54  1.54  1.54  1.54  1.22  1.22  0.92  0.92  0.92  0.92  0.92  0.92  
6           1.54  1.54  1.54  1.54  1.54  1.54  1.54  1.22  1.22  0.92  0.92  0.92  0.92  0.92  0.92  
7           1.54  1.54  1.54  1.54  1.54  1.54  1.54  1.22  1.22  0.92  0.92  0.92  0.92  0.92  0.92  
8           1.54  1.54  1.54  1.54  1.54  1.54  1.54  1.22  1.22  0.92  0.92  0.92  0.92  0.92  0.92  
9           1.54  1.54  1.54  1.54  1.54  1.54  1.54  1.22  1.22  0.92  0.92  0.92  0.92  0.92  0.92  
10          1.54  1.54  1.54  1.54  1.54  1.54  1.54  1.22  1.22  0.92  0.92  0.92  0.92  0.92  0.92  
11          1.54  1.54  1.54  1.54  1.54  1.54  1.54  1.22  1.22  0.92  0.92  0.92  0.92  0.92  0.92  
12          1.54  1.54  1.54  1.54  1.54  1.54  1.54  1.22  1.22  0.92  0.92  0.92  0.92  0.92  0.92  
13          1.54  1.54  1.54  1.54  1.54  1.54  1.54  1.22  1.22  0.92  0.92  0.92  0.92  0.92  0.92  
14          1.54  1.54  1.54  1.54  1.54  1.54  1.54  1.22  1.22  0.92  0.92  0.92  0.92  0.92  0.92  
15          1.54  1.54  1.54  1.54  1.54  1.54  1.54  1.22  1.22  0.92  0.92  0.92  0.92  0.92  0.92  
16          1.54  1.54  1.54  1.54  1.54  1.54  1.54  1.22  1.22  0.92  0.92  0.92  0.92  0.92  0.92  
17          1.54  1.54  1.54  1.54  1.54  1.54  1.54  1.22  1.22  0.92  0.92  0.92  0.92  0.92  0.92  
18          1.54  1.54  1.54  1.54  1.54  1.54  1.54  1.22  1.22  0.92  0.92  0.92  0.92  0.92  0.92  
19          1.54  1.54  1.54  1.54  1.54  1.54  1.54  1.22  1.22  0.92  0.92  0.92  0.92  0.92  0.92  
20          1.54  1.54  1.54  1.54  1.54  1.54  1.54  1.22  1.22  0.92  0.92  0.92  0.92  0.92  0.92  
21          1.54  1.54  1.54  1.54  1.54  1.54  1.54  1.22  1.22  0.92  0.92  0.92  0.92  0.92  0.92  
22          1.54  1.54  1.54  1.54  1.54  1.54  1.54  1.22  1.22  0.92  0.92  0.92  0.92  0.92  0.92  
23          1.54  1.54  1.54  1.54  1.54  1.54  1.54  1.22  1.22  0.92  0.92  0.92  0.92  0.92  0.92  
24          1.54  1.54  1.54  1.54  1.54  1.54  1.54  1.22  1.22  0.92  0.92  0.92  0.92  0.92  0.92  
25          1.46  1.46  1.46  1.46  1.46  1.46  1.46  1.16  1.16  0.87  0.87  0.87  0.87  0.87  0.87  
26          1.46  1.46  1.46  1.46  1.46  1.46  1.46  1.16  1.16  0.87  0.87  0.87  0.87  0.87  0.87  
27          1.46  1.46  1.46  1.46  1.46  1.46  1.46  1.16  1.16  0.87  0.87  0.87  0.87  0.87  0.87  
28          1.46  1.46  1.46  1.46  1.46  1.46  1.46  1.16  1.16  0.87  0.87  0.87  0.87  0.87  0.87  
29          1.46  1.46  1.46  1.46  1.46  1.46  1.46  1.16  1.16  0.87  0.87  0.87  0.87  0.87  0.87  
30          1.46  1.46  1.46  1.46  1.46  1.46  1.46  1.16  1.16  0.87  0.87  0.87  0.87  0.87  0.87  
31          1.46  1.46  1.46  1.46  1.46  1.46  1.46  1.16  1.16  0.87  0.87  0.87  0.87  0.87  0.87  
32          1.46  1.46  1.46  1.46  1.46  1.46  1.46  1.16  1.16  0.87  0.87  0.87  0.87  0.87  0.87  
33          1.46  1.46  1.46  1.46  1.46  1.46  1.46  1.16  1.16  0.87  0.87  0.87  0.87  0.87  0.87  
34          1.54  1.54  1.54  1.54  1.54  1.54  1.54  1.22  1.22  0.92  0.92  0.92  0.92  0.92  0.92  
35          1.54  1.54  1.54  1.54  1.54  1.54  1.54  1.22  1.22  0.92  0.92  0.92  0.92  0.92  0.92  
36          1.54  1.54  1.54  1.54  1.54  1.54  1.54  1.22  1.22  0.92  0.92  0.92  0.92  0.92  0.92  
37          1.54  1.54  1.54  1.54  1.54  1.54  1.54  1.22  1.22  0.92  0.92  0.92  0.92  0.92  0.92  
38          1.54  1.54  1.54  1.54  1.54  1.54  1.54  1.22  1.22  0.92  0.92  0.92  0.92  0.92  0.92  
39          1.54  1.54  1.54  1.54  1.54  1.54  1.54  1.22  1.22  0.92  0.92  0.92  0.92  0.92  0.92  
40          1.54  1.54  1.54  1.54  1.54  1.54  1.54  1.22  1.22  0.92  0.92  0.92  0.92  0.92  0.92  
41          1.54  1.54  1.54  1.54  1.54  1.54  1.54  1.22  1.22  0.92  0.92  0.92  0.92  0.92  0.92  
42          1.54  1.54  1.54  1.54  1.54  1.54  1.54  1.22  1.22  0.92  0.92  0.92  0.92  0.92  0.92  
43          1.54  1.54  1.54  1.54  1.54  1.54  1.54  1.22  1.22  0.92  0.92  0.92  0.92  0.92  0.92  
44          1.54  1.54  1.54  1.54  1.54  1.54  1.54  1.22  1.22  0.92  0.92  0.92  0.92  0.92  0.92  
45          1.54  1.54  1.54  1.54  1.54  1.54  1.54  1.22  1.22  0.92  0.92  0.92  0.92  0.92  0.92  

[*,*,F2 ]:  K1    K2    K3    K4    K5    K6    K7    K8    K9    K10   K11   K12   K13   K14   K15   :=
1           1.64  1.64  1.64  1.64  1.64  1.64  1.64  1.30  1.30  0.98  0.98  0.98  0.98  0.98  0.98  
2           1.64  1.64  1.64  1.64  1.64  1.64  1.64  1.30  1.30  0.98  0.98  0.98  0.98  0.98  0.98  
3           1.64  1.64  1.64  1.64  1.64  1.64  1.64  1.30  1.30  0.98  0.98  0.98  0.98  0.98  0.98  
4           1.64  1.64  1.64  1.64  1.64  1.64  1.64  1.30  1.30  0.98  0.98  0.98  0.98  0.98  0.98  
5           1.64  1.64  1.64  1.64  1.64  1.64  1.64  1.30  1.30  0.98  0.98  0.98  0.98  0.98  0.98  
6           1.64  1.64  1.64  1.64  1.64  1.64  1.64  1.30  1.30  0.98  0.98  0.98  0.98  0.98  0.98  
7           1.64  1.64  1.64  1.64  1.64  1.64  1.64  1.30  1.30  0.98  0.98  0.98  0.98  0.98  0.98  
8           1.64  1.64  1.64  1.64  1.64  1.64  1.64  1.30  1.30  0.98  0.98  0.98  0.98  0.98  0.98  
9           1.64  1.64  1.64  1.64  1.64  1.64  1.64  1.30  1.30  0.98  0.98  0.98  0.98  0.98  0.98  
10          1.64  1.64  1.64  1.64  1.64  1.64  1.64  1.30  1.30  0.98  0.98  0.98  0.98  0.98  0.98  
11          1.64  1.64  1.64  1.64  1.64  1.64  1.64  1.30  1.30  0.98  0.98  0.98  0.98  0.98  0.98  
12          1.64  1.64  1.64  1.64  1.64  1.64  1.64  1.30  1.30  0.98  0.98  0.98  0.98  0.98  0.98  
13          1.64  1.64  1.64  1.64  1.64  1.64  1.64  1.30  1.30  0.98  0.98  0.98  0.98  0.98  0.98  
14          1.64  1.64  1.64  1.64  1.64  1.64  1.64  1.30  1.30  0.98  0.98  0.98  0.98  0.98  0.98  
15          1.64  1.64  1.64  1.64  1.64  1.64  1.64  1.30  1.30  0.98  0.98  0.98  0.98  0.98  0.98  
16          1.64  1.64  1.64  1.64  1.64  1.64  1.64  1.30  1.30  0.98  0.98  0.98  0.98  0.98  0.98  
17          1.64  1.64  1.64  1.64  1.64  1.64  1.64  1.30  1.30  0.98  0.98  0.98  0.98  0.98  0.98  
18          1.64  1.64  1.64  1.64  1.64  1.64  1.64  1.30  1.30  0.98  0.98  0.98  0.98  0.98  0.98  
19          1.64  1.64  1.64  1.64  1.64  1.64  1.64  1.30  1.30  0.98  0.98  0.98  0.98  0.98  0.98  
20          1.64  1.64  1.64  1.64  1.64  1.64  1.64  1.30  1.30  0.98  0.98  0.98  0.98  0.98  0.98  
21          1.64  1.64  1.64  1.64  1.64  1.64  1.64  1.30  1.30  0.98  0.98  0.98  0.98  0.98  0.98  
22          1.64  1.64  1.64  1.64  1.64  1.64  1.64  1.30  1.30  0.98  0.98  0.98  0.98  0.98  0.98  
23          1.64  1.64  1.64  1.64  1.64  1.64  1.64  1.30  1.30  0.98  0.98  0.98  0.98  0.98  0.98  
24          1.64  1.64  1.64  1.64  1.64  1.64  1.64  1.30  1.30  0.98  0.98  0.98  0.98  0.98  0.98  
25          1.55  1.55  1.55  1.55  1.55  1.55  1.55  1.24  1.24  0.93  0.93  0.93  0.93  0.93  0.93  
26          1.55  1.55  1.55  1.55  1.55  1.55  1.55  1.24  1.24  0.93  0.93  0.93  0.93  0.93  0.93  
27          1.55  1.55  1.55  1.55  1.55  1.55  1.55  1.24  1.24  0.93  0.93  0.93  0.93  0.93  0.93  
28          1.55  1.55  1.55  1.55  1.55  1.55  1.55  1.24  1.24  0.93  0.93  0.93  0.93  0.93  0.93  
29          1.55  1.55  1.55  1.55  1.55  1.55  1.55  1.24  1.24  0.93  0.93  0.93  0.93  0.93  0.93  
30          1.55  1.55  1.55  1.55  1.55  1.55  1.55  1.24  1.24  0.93  0.93  0.93  0.93  0.93  0.93  
31          1.55  1.55  1.55  1.55  1.55  1.55  1.55  1.24  1.24  0.93  0.93  0.93  0.93  0.93  0.93  
32          1.55  1.55  1.55  1.55  1.55  1.55  1.55  1.24  1.24  0.93  0.93  0.93  0.93  0.93  0.93  
33          1.55  1.55  1.55  1.55  1.55  1.55  1.55  1.24  1.24  0.93  0.93  0.93  0.93  0.93  0.93  
34          1.64  1.64  1.64  1.64  1.64  1.64  1.64  1.30  1.30  0.98  0.98  0.98  0.98  0.98  0.98  
35          1.64  1.64  1.64  1.64  1.64  1.64  1.64  1.30  1.30  0.98  0.98  0.98  0.98  0.98  0.98  
36          1.64  1.64  1.64  1.64  1.64  1.64  1.64  1.30  1.30  0.98  0.98  0.98  0.98  0.98  0.98  
37          1.64  1.64  1.64  1.64  1.64  1.64  1.64  1.30  1.30  0.98  0.98  0.98  0.98  0.98  0.98  
38          1.64  1.64  1.64  1.64  1.64  1.64  1.64  1.30  1.30  0.98  0.98  0.98  0.98  0.98  0.98  
39          1.64  1.64  1.64  1.64  1.64  1.64  1.64  1.30  1.30  0.98  0.98  0.98  0.98  0.98  0.98  
40          1.64  1.64  1.64  1.64  1.64  1.64  1.64  1.30  1.30  0.98  0.98  0.98  0.98  0.98  0.98  
41          1.64  1.64  1.64  1.64  1.64  1.64  1.64  1.30  1.30  0.98  0.98  0.98  0.98  0.98  0.98  
42          1.64  1.64  1.64  1.64  1.64  1.64  1.64  1.30  1.30  0.98  0.98  0.98  0.98  0.98  0.98  
43          1.64  1.64  1.64  1.64  1.64  1.64  1.64  1.30  1.30  0.98  0.98  0.98  0.98  0.98  0.98  
44          1.64  1.64  1.64  1.64  1.64  1.64  1.64  1.30  1.30  0.98  0.98  0.98  0.98  0.98  0.98  
45          1.64  1.64  1.64  1.64  1.64  1.64  1.64  1.30  1.30  0.98  0.98  0.98  0.98  0.98  0.98  

[*,*,F3 ]:  K1    K2    K3    K4    K5    K6    K7    K8    K9    K10   K11   K12   K13   K14   K15   :=
1           1.75  1.75  1.75  1.75  1.75  1.75  1.75  1.40  1.40  1.05  1.05  1.05  1.05  1.05  1.05  
2           1.75  1.75  1.75  1.75  1.75  1.75  1.75  1.40  1.40  1.05  1.05  1.05  1.05  1.05  1.05  
3           1.75  1.75  1.75  1.75  1.75  1.75  1.75  1.40  1.40  1.05  1.05  1.05  1.05  1.05  1.05  
4           1.75  1.75  1.75  1.75  1.75  1.75  1.75  1.40  1.40  1.05  1.05  1.05  1.05  1.05  1.05  
5           1.75  1.75  1.75  1.75  1.75  1.75  1.75  1.40  1.40  1.05  1.05  1.05  1.05  1.05  1.05  
6           1.75  1.75  1.75  1.75  1.75  1.75  1.75  1.40  1.40  1.05  1.05  1.05  1.05  1.05  1.05  
7           1.75  1.75  1.75  1.75  1.75  1.75  1.75  1.40  1.40  1.05  1.05  1.05  1.05  1.05  1.05  
8           1.75  1.75  1.75  1.75  1.75  1.75  1.75  1.40  1.40  1.05  1.05  1.05  1.05  1.05  1.05  
9           1.75  1.75  1.75  1.75  1.75  1.75  1.75  1.40  1.40  1.05  1.05  1.05  1.05  1.05  1.05  
10          1.75  1.75  1.75  1.75  1.75  1.75  1.75  1.40  1.40  1.05  1.05  1.05  1.05  1.05  1.05  
11          1.75  1.75  1.75  1.75  1.75  1.75  1.75  1.40  1.40  1.05  1.05  1.05  1.05  1.05  1.05  
12          1.75  1.75  1.75  1.75  1.75  1.75  1.75  1.40  1.40  1.05  1.05  1.05  1.05  1.05  1.05  
13          1.75  1.75  1.75  1.75  1.75  1.75  1.75  1.40  1.40  1.05  1.05  1.05  1.05  1.05  1.05  
14          1.75  1.75  1.75  1.75  1.75  1.75  1.75  1.40  1.40  1.05  1.05  1.05  1.05  1.05  1.05  
15          1.75  1.75  1.75  1.75  1.75  1.75  1.75  1.40  1.40  1.05  1.05  1.05  1.05  1.05  1.05  
16          1.75  1.75  1.75  1.75  1.75  1.75  1.75  1.40  1.40  1.05  1.05  1.05  1.05  1.05  1.05  
17          1.75  1.75  1.75  1.75  1.75  1.75  1.75  1.40  1.40  1.05  1.05  1.05  1.05  1.05  1.05  
18          1.75  1.75  1.75  1.75  1.75  1.75  1.75  1.40  1.40  1.05  1.05  1.05  1.05  1.05  1.05  
19          1.75  1.75  1.75  1.75  1.75  1.75  1.75  1.40  1.40  1.05  1.05  1.05  1.05  1.05  1.05  
20          1.75  1.75  1.75  1.75  1.75  1.75  1.75  1.40  1.40  1.05  1.05  1.05  1.05  1.05  1.05  
21          1.75  1.75  1.75  1.75  1.75  1.75  1.75  1.40  1.40  1.05  1.05  1.05  1.05  1.05  1.05  
22          1.75  1.75  1.75  1.75  1.75  1.75  1.75  1.40  1.40  1.05  1.05  1.05  1.05  1.05  1.05  
23          1.75  1.75  1.75  1.75  1.75  1.75  1.75  1.40  1.40  1.05  1.05  1.05  1.05  1.05  1.05  
24          1.75  1.75  1.75  1.75  1.75  1.75  1.75  1.40  1.40  1.05  1.05  1.05  1.05  1.05  1.05  
25          1.67  1.67  1.67  1.67  1.67  1.67  1.67  1.33  1.33  1.00  1.00  1.00  1.00  1.00  1.00  
26          1.67  1.67  1.67  1.67  1.67  1.67  1.67  1.33  1.33  1.00  1.00  1.00  1.00  1.00  1.00  
27          1.67  1.67  1.67  1.67  1.67  1.67  1.67  1.33  1.33  1.00  1.00  1.00  1.00  1.00  1.00  
28          1.67  1.67  1.67  1.67  1.67  1.67  1.67  1.33  1.33  1.00  1.00  1.00  1.00  1.00  1.00  
29          1.67  1.67  1.67  1.67  1.67  1.67  1.67  1.33  1.33  1.00  1.00  1.00  1.00  1.00  1.00  
30          1.67  1.67  1.67  1.67  1.67  1.67  1.67  1.33  1.33  1.00  1.00  1.00  1.00  1.00  1.00  
31          1.67  1.67  1.67  1.67  1.67  1.67  1.67  1.33  1.33  1.00  1.00  1.00  1.00  1.00  1.00  
32          1.67  1.67  1.67  1.67  1.67  1.67  1.67  1.33  1.33  1.00  1.00  1.00  1.00  1.00  1.00  
33          1.67  1.67  1.67  1.67  1.67  1.67  1.67  1.33  1.33  1.00  1.00  1.00  1.00  1.00  1.00  
34          1.75  1.75  1.75  1.75  1.75  1.75  1.75  1.40  1.40  1.05  1.05  1.05  1.05  1.05  1.05  
35          1.75  1.75  1.75  1.75  1.75  1.75  1.75  1.40  1.40  1.05  1.05  1.05  1.05  1.05  1.05  
36          1.75  1.75  1.75  1.75  1.75  1.75  1.75  1.40  1.40  1.05  1.05  1.05  1.05  1.05  1.05  
37          1.75  1.75  1.75  1.75  1.75  1.75  1.75  1.40  1.40  1.05  1.05  1.05  1.05  1.05  1.05  
38          1.75  1.75  1.75  1.75  1.75  1.75  1.75  1.40  1.40  1.05  1.05  1.05  1.05  1.05  1.05  
39          1.75  1.75  1.75  1.75  1.75  1.75  1.75  1.40  1.40  1.05  1.05  1.05  1.05  1.05  1.05  
40          1.75  1.75  1.75  1.75  1.75  1.75  1.75  1.40  1.40  1.05  1.05  1.05  1.05  1.05  1.05  
41          1.75  1.75  1.75  1.75  1.75  1.75  1.75  1.40  1.40  1.05  1.05  1.05  1.05  1.05  1.05  
42          1.75  1.75  1.75  1.75  1.75  1.75  1.75  1.40  1.40  1.05  1.05  1.05  1.05  1.05  1.05  
43          1.75  1.75  1.75  1.75  1.75  1.75  1.75  1.40  1.40  1.05  1.05  1.05  1.05  1.05  1.05  
44          1.75  1.75  1.75  1.75  1.75  1.75  1.75  1.40  1.40  1.05  1.05  1.05  1.05  1.05  1.05  
45          1.75  1.75  1.75  1.75  1.75  1.75  1.75  1.40  1.40  1.05  1.05  1.05  1.05  1.05  1.05  
; # downloads resource k can do at front f in time t if intermediate time slot

param E:= 

[*,*,F1 ]:  K1    K2    K3    K4    K5    K6    K7    K8    K9    K10   K11   K12   K13   K14   K15   :=
1           0.63  0.71  0.37  0.32  0.37  0.52  0.37  0.22  0.44  0.32  0.03  0.32  0.06  0.09  0.40  
2           0.63  0.71  0.37  0.32  0.37  0.52  0.37  0.22  0.44  0.32  0.03  0.32  0.06  0.09  0.40  
3           0.63  0.71  0.37  0.32  0.37  0.52  0.37  0.22  0.44  0.32  0.03  0.32  0.06  0.09  0.40  
4           0.63  0.71  0.37  0.32  0.37  0.52  0.37  0.22  0.44  0.32  0.03  0.32  0.06  0.09  0.40  
5           0.63  0.71  0.37  0.32  0.37  0.52  0.37  0.22  0.44  0.32  0.03  0.32  0.06  0.09  0.40  
6           0.63  0.71  0.37  0.32  0.37  0.52  0.37  0.22  0.44  0.32  0.03  0.32  0.06  0.09  0.40  
7           0.63  0.71  0.37  0.32  0.37  0.52  0.37  0.22  0.44  0.32  0.03  0.32  0.06  0.09  0.40  
8           0.63  0.71  0.37  0.32  0.37  0.52  0.37  0.22  0.44  0.32  0.03  0.32  0.06  0.09  0.40  
9           0.63  0.71  0.37  0.32  0.37  0.52  0.37  0.22  0.44  0.32  0.03  0.32  0.06  0.09  0.40  
10          0.63  0.71  0.37  0.32  0.37  0.52  0.37  0.22  0.44  0.32  0.03  0.32  0.06  0.09  0.40  
11          0.63  0.71  0.37  0.32  0.37  0.52  0.37  0.22  0.44  0.32  0.03  0.32  0.06  0.09  0.40  
12          0.63  0.71  0.37  0.32  0.37  0.52  0.37  0.22  0.44  0.32  0.03  0.32  0.06  0.09  0.40  
13          0.63  0.71  0.37  0.32  0.37  0.52  0.37  0.22  0.44  0.32  0.03  0.32  0.06  0.09  0.40  
14          0.63  0.71  0.37  0.32  0.37  0.52  0.37  0.22  0.44  0.32  0.03  0.32  0.06  0.09  0.40  
15          0.63  0.71  0.37  0.32  0.37  0.52  0.37  0.22  0.44  0.32  0.03  0.32  0.06  0.09  0.40  
16          0.63  0.71  0.37  0.32  0.37  0.52  0.37  0.22  0.44  0.32  0.03  0.32  0.06  0.09  0.40  
17          0.63  0.71  0.37  0.32  0.37  0.52  0.37  0.22  0.44  0.32  0.03  0.32  0.06  0.09  0.40  
18          0.63  0.71  0.37  0.32  0.37  0.52  0.37  0.22  0.44  0.32  0.03  0.32  0.06  0.09  0.40  
19          0.63  0.71  0.37  0.32  0.37  0.52  0.37  0.22  0.44  0.32  0.03  0.32  0.06  0.09  0.40  
20          0.63  0.71  0.37  0.32  0.37  0.52  0.37  0.22  0.44  0.32  0.03  0.32  0.06  0.09  0.40  
21          0.63  0.71  0.37  0.32  0.37  0.52  0.37  0.22  0.44  0.32  0.03  0.32  0.06  0.09  0.40  
22          0.63  0.71  0.37  0.32  0.37  0.52  0.37  0.22  0.44  0.32  0.03  0.32  0.06  0.09  0.40  
23          0.63  0.71  0.37  0.32  0.37  0.52  0.37  0.22  0.44  0.32  0.03  0.32  0.06  0.09  0.40  
24          0.63  0.71  0.37  0.32  0.37  0.52  0.37  0.22  0.44  0.32  0.03  0.32  0.06  0.09  0.40  
25          0.60  0.67  0.35  0.31  0.35  0.50  0.35  0.21  0.42  0.31  0.03  0.31  0.06  0.09  0.38  
26          0.60  0.67  0.35  0.31  0.35  0.50  0.35  0.21  0.42  0.31  0.03  0.31  0.06  0.09  0.38  
27          0.60  0.67  0.35  0.31  0.35  0.50  0.35  0.21  0.42  0.31  0.03  0.31  0.06  0.09  0.38  
28          0.60  0.67  0.35  0.31  0.35  0.50  0.35  0.21  0.42  0.31  0.03  0.31  0.06  0.09  0.38  
29          0.60  0.67  0.35  0.31  0.35  0.50  0.35  0.21  0.42  0.31  0.03  0.31  0.06  0.09  0.38  
30          0.60  0.67  0.35  0.31  0.35  0.50  0.35  0.21  0.42  0.31  0.03  0.31  0.06  0.09  0.38  
31          0.60  0.67  0.35  0.31  0.35  0.50  0.35  0.21  0.42  0.31  0.03  0.31  0.06  0.09  0.38  
32          0.60  0.67  0.35  0.31  0.35  0.50  0.35  0.21  0.42  0.31  0.03  0.31  0.06  0.09  0.38  
33          0.60  0.67  0.35  0.31  0.35  0.50  0.35  0.21  0.42  0.31  0.03  0.31  0.06  0.09  0.38  
34          0.63  0.71  0.37  0.32  0.37  0.52  0.37  0.22  0.44  0.32  0.03  0.32  0.06  0.09  0.40  
35          0.63  0.71  0.37  0.32  0.37  0.52  0.37  0.22  0.44  0.32  0.03  0.32  0.06  0.09  0.40  
36          0.63  0.71  0.37  0.32  0.37  0.52  0.37  0.22  0.44  0.32  0.03  0.32  0.06  0.09  0.40  
37          0.63  0.71  0.37  0.32  0.37  0.52  0.37  0.22  0.44  0.32  0.03  0.32  0.06  0.09  0.40  
38          0.63  0.71  0.37  0.32  0.37  0.52  0.37  0.22  0.44  0.32  0.03  0.32  0.06  0.09  0.40  
39          0.63  0.71  0.37  0.32  0.37  0.52  0.37  0.22  0.44  0.32  0.03  0.32  0.06  0.09  0.40  
40          0.63  0.71  0.37  0.32  0.37  0.52  0.37  0.22  0.44  0.32  0.03  0.32  0.06  0.09  0.40  
41          0.63  0.71  0.37  0.32  0.37  0.52  0.37  0.22  0.44  0.32  0.03  0.32  0.06  0.09  0.40  
42          0.63  0.71  0.37  0.32  0.37  0.52  0.37  0.22  0.44  0.32  0.03  0.32  0.06  0.09  0.40  
43          0.63  0.71  0.37  0.32  0.37  0.52  0.37  0.22  0.44  0.32  0.03  0.32  0.06  0.09  0.40  
44          0.63  0.71  0.37  0.32  0.37  0.52  0.37  0.22  0.44  0.32  0.03  0.32  0.06  0.09  0.40  
45          0.63  0.71  0.37  0.32  0.37  0.52  0.37  0.22  0.44  0.32  0.03  0.32  0.06  0.09  0.40  

[*,*,F2 ]:  K1    K2    K3    K4    K5    K6    K7    K8    K9    K10   K11   K12   K13   K14   K15   :=
1           0.72  0.64  0.33  0.39  0.33  0.39  0.34  0.22  0.42  0.38  0.01  0.36  0.05  0.09  0.48  
2           0.72  0.64  0.33  0.39  0.33  0.39  0.34  0.22  0.42  0.38  0.01  0.36  0.05  0.09  0.48  
3           0.72  0.64  0.33  0.39  0.33  0.39  0.34  0.22  0.42  0.38  0.01  0.36  0.05  0.09  0.48  
4           0.72  0.64  0.33  0.39  0.33  0.39  0.34  0.22  0.42  0.38  0.01  0.36  0.05  0.09  0.48  
5           0.72  0.64  0.33  0.39  0.33  0.39  0.34  0.22  0.42  0.38  0.01  0.36  0.05  0.09  0.48  
6           0.72  0.64  0.33  0.39  0.33  0.39  0.34  0.22  0.42  0.38  0.01  0.36  0.05  0.09  0.48  
7           0.72  0.64  0.33  0.39  0.33  0.39  0.34  0.22  0.42  0.38  0.01  0.36  0.05  0.09  0.48  
8           0.72  0.64  0.33  0.39  0.33  0.39  0.34  0.22  0.42  0.38  0.01  0.36  0.05  0.09  0.48  
9           0.72  0.64  0.33  0.39  0.33  0.39  0.34  0.22  0.42  0.38  0.01  0.36  0.05  0.09  0.48  
10          0.72  0.64  0.33  0.39  0.33  0.39  0.34  0.22  0.42  0.38  0.01  0.36  0.05  0.09  0.48  
11          0.72  0.64  0.33  0.39  0.33  0.39  0.34  0.22  0.42  0.38  0.01  0.36  0.05  0.09  0.48  
12          0.72  0.64  0.33  0.39  0.33  0.39  0.34  0.22  0.42  0.38  0.01  0.36  0.05  0.09  0.48  
13          0.72  0.64  0.33  0.39  0.33  0.39  0.34  0.22  0.42  0.38  0.01  0.36  0.05  0.09  0.48  
14          0.72  0.64  0.33  0.39  0.33  0.39  0.34  0.22  0.42  0.38  0.01  0.36  0.05  0.09  0.48  
15          0.72  0.64  0.33  0.39  0.33  0.39  0.34  0.22  0.42  0.38  0.01  0.36  0.05  0.09  0.48  
16          0.72  0.64  0.33  0.39  0.33  0.39  0.34  0.22  0.42  0.38  0.01  0.36  0.05  0.09  0.48  
17          0.72  0.64  0.33  0.39  0.33  0.39  0.34  0.22  0.42  0.38  0.01  0.36  0.05  0.09  0.48  
18          0.72  0.64  0.33  0.39  0.33  0.39  0.34  0.22  0.42  0.38  0.01  0.36  0.05  0.09  0.48  
19          0.72  0.64  0.33  0.39  0.33  0.39  0.34  0.22  0.42  0.38  0.01  0.36  0.05  0.09  0.48  
20          0.72  0.64  0.33  0.39  0.33  0.39  0.34  0.22  0.42  0.38  0.01  0.36  0.05  0.09  0.48  
21          0.72  0.64  0.33  0.39  0.33  0.39  0.34  0.22  0.42  0.38  0.01  0.36  0.05  0.09  0.48  
22          0.72  0.64  0.33  0.39  0.33  0.39  0.34  0.22  0.42  0.38  0.01  0.36  0.05  0.09  0.48  
23          0.72  0.64  0.33  0.39  0.33  0.39  0.34  0.22  0.42  0.38  0.01  0.36  0.05  0.09  0.48  
24          0.72  0.64  0.33  0.39  0.33  0.39  0.34  0.22  0.42  0.38  0.01  0.36  0.05  0.09  0.48  
25          0.68  0.61  0.31  0.37  0.31  0.37  0.33  0.21  0.40  0.36  0.01  0.34  0.05  0.08  0.46  
26          0.68  0.61  0.31  0.37  0.31  0.37  0.33  0.21  0.40  0.36  0.01  0.34  0.05  0.08  0.46  
27          0.68  0.61  0.31  0.37  0.31  0.37  0.33  0.21  0.40  0.36  0.01  0.34  0.05  0.08  0.46  
28          0.68  0.61  0.31  0.37  0.31  0.37  0.33  0.21  0.40  0.36  0.01  0.34  0.05  0.08  0.46  
29          0.68  0.61  0.31  0.37  0.31  0.37  0.33  0.21  0.40  0.36  0.01  0.34  0.05  0.08  0.46  
30          0.68  0.61  0.31  0.37  0.31  0.37  0.33  0.21  0.40  0.36  0.01  0.34  0.05  0.08  0.46  
31          0.68  0.61  0.31  0.37  0.31  0.37  0.33  0.21  0.40  0.36  0.01  0.34  0.05  0.08  0.46  
32          0.68  0.61  0.31  0.37  0.31  0.37  0.33  0.21  0.40  0.36  0.01  0.34  0.05  0.08  0.46  
33          0.68  0.61  0.31  0.37  0.31  0.37  0.33  0.21  0.40  0.36  0.01  0.34  0.05  0.08  0.46  
34          0.72  0.64  0.33  0.39  0.33  0.39  0.34  0.22  0.42  0.38  0.01  0.36  0.05  0.09  0.48  
35          0.72  0.64  0.33  0.39  0.33  0.39  0.34  0.22  0.42  0.38  0.01  0.36  0.05  0.09  0.48  
36          0.72  0.64  0.33  0.39  0.33  0.39  0.34  0.22  0.42  0.38  0.01  0.36  0.05  0.09  0.48  
37          0.72  0.64  0.33  0.39  0.33  0.39  0.34  0.22  0.42  0.38  0.01  0.36  0.05  0.09  0.48  
38          0.72  0.64  0.33  0.39  0.33  0.39  0.34  0.22  0.42  0.38  0.01  0.36  0.05  0.09  0.48  
39          0.72  0.64  0.33  0.39  0.33  0.39  0.34  0.22  0.42  0.38  0.01  0.36  0.05  0.09  0.48  
40          0.72  0.64  0.33  0.39  0.33  0.39  0.34  0.22  0.42  0.38  0.01  0.36  0.05  0.09  0.48  
41          0.72  0.64  0.33  0.39  0.33  0.39  0.34  0.22  0.42  0.38  0.01  0.36  0.05  0.09  0.48  
42          0.72  0.64  0.33  0.39  0.33  0.39  0.34  0.22  0.42  0.38  0.01  0.36  0.05  0.09  0.48  
43          0.72  0.64  0.33  0.39  0.33  0.39  0.34  0.22  0.42  0.38  0.01  0.36  0.05  0.09  0.48  
44          0.72  0.64  0.33  0.39  0.33  0.39  0.34  0.22  0.42  0.38  0.01  0.36  0.05  0.09  0.48  
45          0.72  0.64  0.33  0.39  0.33  0.39  0.34  0.22  0.42  0.38  0.01  0.36  0.05  0.09  0.48  

[*,*,F3 ]:  K1    K2    K3    K4    K5    K6    K7    K8    K9    K10   K11   K12   K13   K14   K15   :=
1           0.67  0.70  0.26  0.53  0.44  0.56  0.42  0.18  0.53  0.38  0.01  0.44  0.09  0.12  0.52  
2           0.67  0.70  0.26  0.53  0.44  0.56  0.42  0.18  0.53  0.38  0.01  0.44  0.09  0.12  0.52  
3           0.67  0.70  0.26  0.53  0.44  0.56  0.42  0.18  0.53  0.38  0.01  0.44  0.09  0.12  0.52  
4           0.67  0.70  0.26  0.53  0.44  0.56  0.42  0.18  0.53  0.38  0.01  0.44  0.09  0.12  0.52  
5           0.67  0.70  0.26  0.53  0.44  0.56  0.42  0.18  0.53  0.38  0.01  0.44  0.09  0.12  0.52  
6           0.67  0.70  0.26  0.53  0.44  0.56  0.42  0.18  0.53  0.38  0.01  0.44  0.09  0.12  0.52  
7           0.67  0.70  0.26  0.53  0.44  0.56  0.42  0.18  0.53  0.38  0.01  0.44  0.09  0.12  0.52  
8           0.67  0.70  0.26  0.53  0.44  0.56  0.42  0.18  0.53  0.38  0.01  0.44  0.09  0.12  0.52  
9           0.67  0.70  0.26  0.53  0.44  0.56  0.42  0.18  0.53  0.38  0.01  0.44  0.09  0.12  0.52  
10          0.67  0.70  0.26  0.53  0.44  0.56  0.42  0.18  0.53  0.38  0.01  0.44  0.09  0.12  0.52  
11          0.67  0.70  0.26  0.53  0.44  0.56  0.42  0.18  0.53  0.38  0.01  0.44  0.09  0.12  0.52  
12          0.67  0.70  0.26  0.53  0.44  0.56  0.42  0.18  0.53  0.38  0.01  0.44  0.09  0.12  0.52  
13          0.67  0.70  0.26  0.53  0.44  0.56  0.42  0.18  0.53  0.38  0.01  0.44  0.09  0.12  0.52  
14          0.67  0.70  0.26  0.53  0.44  0.56  0.42  0.18  0.53  0.38  0.01  0.44  0.09  0.12  0.52  
15          0.67  0.70  0.26  0.53  0.44  0.56  0.42  0.18  0.53  0.38  0.01  0.44  0.09  0.12  0.52  
16          0.67  0.70  0.26  0.53  0.44  0.56  0.42  0.18  0.53  0.38  0.01  0.44  0.09  0.12  0.52  
17          0.67  0.70  0.26  0.53  0.44  0.56  0.42  0.18  0.53  0.38  0.01  0.44  0.09  0.12  0.52  
18          0.67  0.70  0.26  0.53  0.44  0.56  0.42  0.18  0.53  0.38  0.01  0.44  0.09  0.12  0.52  
19          0.67  0.70  0.26  0.53  0.44  0.56  0.42  0.18  0.53  0.38  0.01  0.44  0.09  0.12  0.52  
20          0.67  0.70  0.26  0.53  0.44  0.56  0.42  0.18  0.53  0.38  0.01  0.44  0.09  0.12  0.52  
21          0.67  0.70  0.26  0.53  0.44  0.56  0.42  0.18  0.53  0.38  0.01  0.44  0.09  0.12  0.52  
22          0.67  0.70  0.26  0.53  0.44  0.56  0.42  0.18  0.53  0.38  0.01  0.44  0.09  0.12  0.52  
23          0.67  0.70  0.26  0.53  0.44  0.56  0.42  0.18  0.53  0.38  0.01  0.44  0.09  0.12  0.52  
24          0.67  0.70  0.26  0.53  0.44  0.56  0.42  0.18  0.53  0.38  0.01  0.44  0.09  0.12  0.52  
25          0.63  0.67  0.25  0.50  0.42  0.53  0.40  0.17  0.50  0.36  0.01  0.42  0.09  0.11  0.50  
26          0.63  0.67  0.25  0.50  0.42  0.53  0.40  0.17  0.50  0.36  0.01  0.42  0.09  0.11  0.50  
27          0.63  0.67  0.25  0.50  0.42  0.53  0.40  0.17  0.50  0.36  0.01  0.42  0.09  0.11  0.50  
28          0.63  0.67  0.25  0.50  0.42  0.53  0.40  0.17  0.50  0.36  0.01  0.42  0.09  0.11  0.50  
29          0.63  0.67  0.25  0.50  0.42  0.53  0.40  0.17  0.50  0.36  0.01  0.42  0.09  0.11  0.50  
30          0.63  0.67  0.25  0.50  0.42  0.53  0.40  0.17  0.50  0.36  0.01  0.42  0.09  0.11  0.50  
31          0.63  0.67  0.25  0.50  0.42  0.53  0.40  0.17  0.50  0.36  0.01  0.42  0.09  0.11  0.50  
32          0.63  0.67  0.25  0.50  0.42  0.53  0.40  0.17  0.50  0.36  0.01  0.42  0.09  0.11  0.50  
33          0.63  0.67  0.25  0.50  0.42  0.53  0.40  0.17  0.50  0.36  0.01  0.42  0.09  0.11  0.50  
34          0.67  0.70  0.26  0.53  0.44  0.56  0.42  0.18  0.53  0.38  0.01  0.44  0.09  0.12  0.52  
35          0.67  0.70  0.26  0.53  0.44  0.56  0.42  0.18  0.53  0.38  0.01  0.44  0.09  0.12  0.52  
36          0.67  0.70  0.26  0.53  0.44  0.56  0.42  0.18  0.53  0.38  0.01  0.44  0.09  0.12  0.52  
37          0.67  0.70  0.26  0.53  0.44  0.56  0.42  0.18  0.53  0.38  0.01  0.44  0.09  0.12  0.52  
38          0.67  0.70  0.26  0.53  0.44  0.56  0.42  0.18  0.53  0.38  0.01  0.44  0.09  0.12  0.52  
39          0.67  0.70  0.26  0.53  0.44  0.56  0.42  0.18  0.53  0.38  0.01  0.44  0.09  0.12  0.52  
40          0.67  0.70  0.26  0.53  0.44  0.56  0.42  0.18  0.53  0.38  0.01  0.44  0.09  0.12  0.52  
41          0.67  0.70  0.26  0.53  0.44  0.56  0.42  0.18  0.53  0.38  0.01  0.44  0.09  0.12  0.52  
42          0.67  0.70  0.26  0.53  0.44  0.56  0.42  0.18  0.53  0.38  0.01  0.44  0.09  0.12  0.52  
43          0.67  0.70  0.26  0.53  0.44  0.56  0.42  0.18  0.53  0.38  0.01  0.44  0.09  0.12  0.52  
44          0.67  0.70  0.26  0.53  0.44  0.56  0.42  0.18  0.53  0.38  0.01  0.44  0.09  0.12  0.52  
45          0.67  0.70  0.26  0.53  0.44  0.56  0.42  0.18  0.53  0.38  0.01  0.44  0.09  0.12  0.52  
; # downloads resource k can do at front f in time t if starting or ending flight

param W: 
	F1        F2        F3        :=
1	1065.33   532.67    532.67    
2	4261.33   2130.67   2130.67   
3	4261.33   2130.67   2130.67   
4	4261.33   2130.67   2130.67   
5	4261.33   2130.67   2130.67   
6	4261.33   2130.67   2130.67   
7	4261.33   2130.67   2130.67   
8	4261.33   2130.67   2130.67   
9	4261.33   2130.67   2130.67   
10	4261.33   2130.67   2130.67   
11	4261.33   2130.67   2130.67   
12	4261.33   2130.67   2130.67   
13	4261.33   2130.67   2130.67   
14	4261.33   2130.67   2130.67   
15	4261.33   2130.67   2130.67   
16	4261.33   2130.67   2130.67   
17	4261.33   2130.67   2130.67   
18	4261.33   2130.67   2130.67   
19	4261.33   2130.67   2130.67   
20	4261.33   2130.67   2130.67   
21	4261.33   2130.67   2130.67   
22	4261.33   2130.67   2130.67   
23	4261.33   2130.67   2130.67   
24	4261.33   2130.67   2130.67   
25	4261.33   2130.67   2130.67   
26	4261.33   2130.67   2130.67   
27	4261.33   2130.67   2130.67   
28	4261.33   2130.67   2130.67   
29	4261.33   2130.67   2130.67   
30	4261.33   2130.67   2130.67   
31	4261.33   2130.67   2130.67   
32	4261.33   2130.67   2130.67   
33	4261.33   2130.67   2130.67   
34	4261.33   2130.67   2130.67   
35	4261.33   2130.67   2130.67   
36	4261.33   2130.67   2130.67   
37	4261.33   2130.67   2130.67   
38	4261.33   2130.67   2130.67   
39	4261.33   2130.67   2130.67   
40	4261.33   2130.67   2130.67   
41	4261.33   2130.67   2130.67   
42	4261.33   2130.67   2130.67   
43	4261.33   2130.67   2130.67   
44	4261.33   2130.67   2130.67   
45	1065.33   532.67    532.67    
; # water needed at front f in time slot t

param M := 100000000; 

param a1:= 10000000;

param a2:= 100;

param a3:= 0.0001;
